p edge 20 42 10
v 2 5 14
v 2 4 11
v 3 12 13 20
v 3 1 9 16
v 2 15 19
v 2 6 17
v 2 3 18
v 2 2 8
v 1 7
v 1 10
e 1 5
e 1 10
e 1 11
e 1 18
e 2 4
e 2 9
e 2 10
e 2 20
e 3 4
e 3 12
e 3 16
e 4 6
e 4 7
e 4 10
e 4 13
e 5 15
e 5 16
e 5 17
e 5 18
e 6 7
e 6 8
e 6 11
e 6 13
e 6 14
e 6 15
e 6 16
e 7 12
e 7 16
e 7 20
e 8 14
e 8 16
e 8 18
e 9 12
e 9 14
e 9 15
e 9 17
e 11 15
e 12 16
e 12 18
e 14 18
e 16 20
e 17 19
